benchmark/results/graph__10-1000-0.10-02_8/error_log/graph__10-1000-0.10-02_8_Quinton_Benders_primal_sub_ERRORLOG.lp
\ This file has been generated by DOcplex
\ ENCODING=ISO-8859-1
\Problem name: Quinton Benders_primal_sub

Maximize
 obj: tau
Subject To
 c1: tau <= 0.001160092807
 c2: y_a0_proc_0 + y_a0_proc_1 - tau = 0
 c3: y_a0_proc_0 <= 0
 c4: y_a0_proc_1 <= 1
 c5: tau <= 0.001036269430
 c6: y_a1_proc_0 + y_a1_proc_1 - tau = 0
 c7: y_a1_proc_0 <= 1
 c8: y_a1_proc_1 <= 0
 c9: tau <= 0.001097694841
 c10: y_a2_proc_0 + y_a2_proc_1 - tau = 0
 c11: y_a2_proc_0 <= 0
 c12: y_a2_proc_1 <= 1
 c13: tau <= 0.001033057851
 c14: y_a3_proc_1 - tau = 0
 c15: y_a3_proc_1 <= 1
 c16: tau <= 0.001131221719
 c17: y_a4_proc_0 + y_a4_proc_1 - tau = 0
 c18: y_a4_proc_0 <= 1
 c19: y_a4_proc_1 <= 0
 c20: tau <= 0.001169590643
 c21: y_a5_proc_0 + y_a5_proc_1 - tau = 0
 c22: y_a5_proc_0 <= 1
 c23: y_a5_proc_1 <= 0
 c24: tau <= 0.000819000819
 c25: y_a6_proc_0 + y_a6_proc_1 - tau = 0
 c26: y_a6_proc_0 <= 0
 c27: y_a6_proc_1 <= 1
 c28: tau <= 0.000864304235
 c29: y_a7_proc_0 + y_a7_proc_1 - tau = 0
 c30: y_a7_proc_0 <= 0
 c31: y_a7_proc_1 <= 1
 c32: tau <= 0.000854700855
 c33: y_a8_proc_0 + y_a8_proc_1 - tau = 0
 c34: y_a8_proc_0 <= 1
 c35: y_a8_proc_1 <= 0
 c36: tau <= 0.001267427123
 c37: y_a9_proc_0 + y_a9_proc_1 - tau = 0
 c38: y_a9_proc_0 <= 1
 c39: y_a9_proc_1 <= 0
 c40: u_a0 - u_a1 - 965 y_a1_proc_0 - 1004 y_a1_proc_1 >= -1
 c41: u_a0 - u_a2 - 979 y_a2_proc_0 - 911 y_a2_proc_1 >= -1
 c42: u_a3 - u_a2 - 979 y_a2_proc_0 - 911 y_a2_proc_1 >= 0
 c43: u_a2 - u_a4 - 884 y_a4_proc_0 - 895 y_a4_proc_1 >= 0
 c44: u_a1 - u_a5 - 855 y_a5_proc_0 - 1166 y_a5_proc_1 >= 0
 c45: u_a6 - u_a3 - 968 y_a3_proc_1 >= 0
 c46: u_a4 - u_a7 - 781 y_a7_proc_0 - 1157 y_a7_proc_1 >= 0
 c47: u_a1 - u_a8 - 1170 y_a8_proc_0 - 801 y_a8_proc_1 >= 0
 c48: u_a5 - u_a9 - 789 y_a9_proc_0 - 697 y_a9_proc_1 >= 0
 c49: u_a7 - u_a1 - 965 y_a1_proc_0 - 1004 y_a1_proc_1 >= -1
 c50: u_a4 - u_a1 - 965 y_a1_proc_0 - 1004 y_a1_proc_1 >= -1
 c51: u_a8 - u_a0 - 537 y_a0_proc_0 - 862 y_a0_proc_1 >= 0
 c52: u_a1 - u_a4 - 884 y_a4_proc_0 - 895 y_a4_proc_1 >= 0
 c53: u_a3 - u_a6 - 785 y_a6_proc_0 - 1221 y_a6_proc_1 >= -1
 c54: - 979 y_a2_proc_0 - 911 y_a2_proc_1 >= -1
 c55: u_a9 - u_a0 - 537 y_a0_proc_0 - 862 y_a0_proc_1 >= 0
 c56: u_a1 - u_a0 - 862 y_a0_proc_1 >= -2442
 c57: u_a1 - u_a0 - 537 y_a0_proc_0 >= -2442
 c58: u_a0 - u_a1 - 1004 y_a1_proc_1 >= -1
 c59: u_a0 - u_a1 - 965 y_a1_proc_0 >= -1
 c60: u_a2 - u_a0 - 862 y_a0_proc_1 >= 0
 c61: u_a2 - u_a0 - 537 y_a0_proc_0 >= -2442
 c62: u_a0 - u_a2 - 911 y_a2_proc_1 >= -1
 c63: u_a0 - u_a2 - 979 y_a2_proc_0 >= -2443
 c64: u_a3 - u_a0 - 862 y_a0_proc_1 >= 999999998
 c65: u_a0 - u_a3 - 968 y_a3_proc_1 >= -999999999
 c66: u_a4 - u_a0 - 862 y_a0_proc_1 >= -2442
 c67: u_a4 - u_a0 - 537 y_a0_proc_0 >= -2442
 c68: u_a0 - u_a4 - 895 y_a4_proc_1 >= -1
 c69: u_a0 - u_a4 - 884 y_a4_proc_0 >= -1
 c70: u_a5 - u_a0 - 862 y_a0_proc_1 >= -2442
 c71: u_a5 - u_a0 - 537 y_a0_proc_0 >= -2442
 c72: u_a0 - u_a5 - 1166 y_a5_proc_1 >= -1
 c73: u_a0 - u_a5 - 855 y_a5_proc_0 >= -1
 c74: u_a6 - u_a0 - 862 y_a0_proc_1 >= 999999999
 c75: u_a6 - u_a0 - 537 y_a0_proc_0 >= 999997557
 c76: u_a0 - u_a6 - 1221 y_a6_proc_1 >= -1000000000
 c77: u_a0 - u_a6 - 785 y_a6_proc_0 >= -1000002442
 c78: u_a7 - u_a0 - 862 y_a0_proc_1 >= 0
 c79: u_a7 - u_a0 - 537 y_a0_proc_0 >= -2442
 c80: u_a0 - u_a7 - 1157 y_a7_proc_1 >= -1
 c81: u_a0 - u_a7 - 781 y_a7_proc_0 >= -2443
 c82: u_a8 - u_a0 - 862 y_a0_proc_1 >= -2442
 c83: u_a8 - u_a0 - 537 y_a0_proc_0 >= -2442
 c84: u_a0 - u_a8 - 801 y_a8_proc_1 >= -1
 c85: u_a0 - u_a8 - 1170 y_a8_proc_0 >= -1
 c86: u_a9 - u_a0 - 862 y_a0_proc_1 >= -2442
 c87: u_a9 - u_a0 - 537 y_a0_proc_0 >= -2442
 c88: u_a0 - u_a9 - 697 y_a9_proc_1 >= -1
 c89: u_a0 - u_a9 - 789 y_a9_proc_0 >= -1
 c90: u_a2 - u_a1 - 1004 y_a1_proc_1 >= -2442
 c91: u_a2 - u_a1 - 965 y_a1_proc_0 >= -2442
 c92: u_a1 - u_a2 - 911 y_a2_proc_1 >= -1
 c93: u_a1 - u_a2 - 979 y_a2_proc_0 >= -1
 c94: u_a3 - u_a1 - 1004 y_a1_proc_1 >= 999997555
 c95: u_a1 - u_a3 - 968 y_a3_proc_1 >= -999999998
 c96: u_a4 - u_a1 - 1004 y_a1_proc_1 >= -2443
 c97: u_a4 - u_a1 - 965 y_a1_proc_0 >= -1
 c98: u_a1 - u_a4 - 895 y_a4_proc_1 >= -2442
 c99: u_a1 - u_a4 - 884 y_a4_proc_0 >= 0
 c100: u_a5 - u_a1 - 1004 y_a1_proc_1 >= -2443
 c101: u_a5 - u_a1 - 965 y_a1_proc_0 >= -1
 c102: u_a1 - u_a5 - 1166 y_a5_proc_1 >= -2442
 c103: u_a1 - u_a5 - 855 y_a5_proc_0 >= 0
 c104: u_a6 - u_a1 - 1004 y_a1_proc_1 >= 999997556
 c105: u_a6 - u_a1 - 965 y_a1_proc_0 >= 999997556
 c106: u_a1 - u_a6 - 1221 y_a6_proc_1 >= -999999999
 c107: u_a1 - u_a6 - 785 y_a6_proc_0 >= -999999999
 c108: u_a7 - u_a1 - 1004 y_a1_proc_1 >= -2443
 c109: u_a7 - u_a1 - 965 y_a1_proc_0 >= -2443
 c110: u_a1 - u_a7 - 1157 y_a7_proc_1 >= 0
 c111: u_a1 - u_a7 - 781 y_a7_proc_0 >= 0
 c112: u_a8 - u_a1 - 1004 y_a1_proc_1 >= -2443
 c113: u_a8 - u_a1 - 965 y_a1_proc_0 >= -1
 c114: u_a1 - u_a8 - 801 y_a8_proc_1 >= -2442
 c115: u_a1 - u_a8 - 1170 y_a8_proc_0 >= 0
 c116: u_a9 - u_a1 - 1004 y_a1_proc_1 >= -2443
 c117: u_a9 - u_a1 - 965 y_a1_proc_0 >= -1
 c118: u_a1 - u_a9 - 697 y_a9_proc_1 >= -2442
 c119: u_a1 - u_a9 - 789 y_a9_proc_0 >= 0
 c120: u_a3 - u_a2 - 911 y_a2_proc_1 >= 999999997
 c121: u_a2 - u_a3 - 968 y_a3_proc_1 >= -999999998
 c122: u_a4 - u_a2 - 911 y_a2_proc_1 >= -2443
 c123: u_a4 - u_a2 - 979 y_a2_proc_0 >= -2443
 c124: u_a2 - u_a4 - 895 y_a4_proc_1 >= 0
 c125: u_a2 - u_a4 - 884 y_a4_proc_0 >= 0
 c126: u_a5 - u_a2 - 911 y_a2_proc_1 >= -2443
 c127: u_a5 - u_a2 - 979 y_a2_proc_0 >= -2443
 c128: u_a2 - u_a5 - 1166 y_a5_proc_1 >= 0
 c129: u_a2 - u_a5 - 855 y_a5_proc_0 >= 0
 c130: u_a6 - u_a2 - 911 y_a2_proc_1 >= 999999998
 c131: u_a6 - u_a2 - 979 y_a2_proc_0 >= 999997556
 c132: u_a2 - u_a6 - 1221 y_a6_proc_1 >= -999999999
 c133: u_a2 - u_a6 - 785 y_a6_proc_0 >= -1000002441
 c134: u_a7 - u_a2 - 911 y_a2_proc_1 >= -1
 c135: u_a7 - u_a2 - 979 y_a2_proc_0 >= -2443
 c136: u_a2 - u_a7 - 1157 y_a7_proc_1 >= 0
 c137: u_a2 - u_a7 - 781 y_a7_proc_0 >= -2442
 c138: u_a8 - u_a2 - 911 y_a2_proc_1 >= -2443
 c139: u_a8 - u_a2 - 979 y_a2_proc_0 >= -2443
 c140: u_a2 - u_a8 - 801 y_a8_proc_1 >= 0
 c141: u_a2 - u_a8 - 1170 y_a8_proc_0 >= 0
 c142: u_a9 - u_a2 - 911 y_a2_proc_1 >= -2443
 c143: u_a9 - u_a2 - 979 y_a2_proc_0 >= -2443
 c144: u_a2 - u_a9 - 697 y_a9_proc_1 >= 0
 c145: u_a2 - u_a9 - 789 y_a9_proc_0 >= 0
 c146: u_a4 - u_a3 - 968 y_a3_proc_1 >= -1000001221
 c147: u_a3 - u_a4 - 895 y_a4_proc_1 >= 999998778
 c148: u_a5 - u_a3 - 968 y_a3_proc_1 >= -1000001221
 c149: u_a3 - u_a5 - 1166 y_a5_proc_1 >= 999998778
 c150: u_a6 - u_a3 - 968 y_a3_proc_1 >= 0
 c151: u_a3 - u_a6 - 1221 y_a6_proc_1 >= -1
 c152: u_a7 - u_a3 - 968 y_a3_proc_1 >= -999999998
 c153: u_a3 - u_a7 - 1157 y_a7_proc_1 >= 999999997
 c154: u_a8 - u_a3 - 968 y_a3_proc_1 >= -1000001221
 c155: u_a3 - u_a8 - 801 y_a8_proc_1 >= 999998778
 c156: u_a9 - u_a3 - 968 y_a3_proc_1 >= -1000001221
 c157: u_a3 - u_a9 - 697 y_a9_proc_1 >= 999998778
 c158: u_a5 - u_a4 - 895 y_a4_proc_1 >= -2443
 c159: u_a5 - u_a4 - 884 y_a4_proc_0 >= -1
 c160: u_a4 - u_a5 - 1166 y_a5_proc_1 >= -2442
 c161: u_a4 - u_a5 - 855 y_a5_proc_0 >= 0
 c162: u_a6 - u_a4 - 895 y_a4_proc_1 >= 999997556
 c163: u_a6 - u_a4 - 884 y_a4_proc_0 >= 999997556
 c164: u_a4 - u_a6 - 1221 y_a6_proc_1 >= -999999999
 c165: u_a4 - u_a6 - 785 y_a6_proc_0 >= -999999999
 c166: u_a7 - u_a4 - 895 y_a4_proc_1 >= -2443
 c167: u_a7 - u_a4 - 884 y_a4_proc_0 >= -2443
 c168: u_a4 - u_a7 - 1157 y_a7_proc_1 >= 0
 c169: u_a4 - u_a7 - 781 y_a7_proc_0 >= 0
 c170: u_a8 - u_a4 - 895 y_a4_proc_1 >= -2443
 c171: u_a8 - u_a4 - 884 y_a4_proc_0 >= -1
 c172: u_a4 - u_a8 - 801 y_a8_proc_1 >= -2442
 c173: u_a4 - u_a8 - 1170 y_a8_proc_0 >= 0
 c174: u_a9 - u_a4 - 895 y_a4_proc_1 >= -2443
 c175: u_a9 - u_a4 - 884 y_a4_proc_0 >= -1
 c176: u_a4 - u_a9 - 697 y_a9_proc_1 >= -2442
 c177: u_a4 - u_a9 - 789 y_a9_proc_0 >= 0
 c178: u_a6 - u_a5 - 1166 y_a5_proc_1 >= 999997556
 c179: u_a6 - u_a5 - 855 y_a5_proc_0 >= 999997556
 c180: u_a5 - u_a6 - 1221 y_a6_proc_1 >= -999999999
 c181: u_a5 - u_a6 - 785 y_a6_proc_0 >= -999999999
 c182: u_a7 - u_a5 - 1166 y_a5_proc_1 >= -2442
 c183: u_a7 - u_a5 - 855 y_a5_proc_0 >= -2442
 c184: u_a5 - u_a7 - 1157 y_a7_proc_1 >= -1
 c185: u_a5 - u_a7 - 781 y_a7_proc_0 >= -1
 c186: u_a8 - u_a5 - 1166 y_a5_proc_1 >= -2443
 c187: u_a8 - u_a5 - 855 y_a5_proc_0 >= -1
 c188: u_a5 - u_a8 - 801 y_a8_proc_1 >= -2442
 c189: u_a5 - u_a8 - 1170 y_a8_proc_0 >= 0
 c190: u_a9 - u_a5 - 1166 y_a5_proc_1 >= -2443
 c191: u_a9 - u_a5 - 855 y_a5_proc_0 >= -1
 c192: u_a5 - u_a9 - 697 y_a9_proc_1 >= -2442
 c193: u_a5 - u_a9 - 789 y_a9_proc_0 >= 0
 c194: u_a7 - u_a6 - 1221 y_a6_proc_1 >= -999999999
 c195: u_a7 - u_a6 - 785 y_a6_proc_0 >= -1000002441
 c196: u_a6 - u_a7 - 1157 y_a7_proc_1 >= 999999998
 c197: u_a6 - u_a7 - 781 y_a7_proc_0 >= 999997556
 c198: u_a8 - u_a6 - 1221 y_a6_proc_1 >= -1000001221
 c199: u_a8 - u_a6 - 785 y_a6_proc_0 >= -1000001221
 c200: u_a6 - u_a8 - 801 y_a8_proc_1 >= 999998778
 c201: u_a6 - u_a8 - 1170 y_a8_proc_0 >= 999998778
 c202: u_a9 - u_a6 - 1221 y_a6_proc_1 >= -1000001221
 c203: u_a9 - u_a6 - 785 y_a6_proc_0 >= -1000001221
 c204: u_a6 - u_a9 - 697 y_a9_proc_1 >= 999998778
 c205: u_a6 - u_a9 - 789 y_a9_proc_0 >= 999998778
 c206: u_a8 - u_a7 - 1157 y_a7_proc_1 >= -2443
 c207: u_a8 - u_a7 - 781 y_a7_proc_0 >= -2443
 c208: u_a7 - u_a8 - 801 y_a8_proc_1 >= 0
 c209: u_a7 - u_a8 - 1170 y_a8_proc_0 >= 0
 c210: u_a9 - u_a7 - 1157 y_a7_proc_1 >= -2443
 c211: u_a9 - u_a7 - 781 y_a7_proc_0 >= -2443
 c212: u_a7 - u_a9 - 697 y_a9_proc_1 >= 0
 c213: u_a7 - u_a9 - 789 y_a9_proc_0 >= 0
 c214: u_a9 - u_a8 - 801 y_a8_proc_1 >= -2443
 c215: u_a9 - u_a8 - 1170 y_a8_proc_0 >= -1
 c216: u_a8 - u_a9 - 697 y_a9_proc_1 >= -2442
 c217: u_a8 - u_a9 - 789 y_a9_proc_0 >= 0

Bounds
End
