benchmark/results/graph__10-1000-0.10-02_8/error_log/graph__10-1000-0.10-02_8_Quinton_Benders_primal_sub_ERRORLOG.txt
solution for: Quinton Benders_primal_sub
objective: 0.000165098
status: OPTIMAL_SOLUTION(2)
u_a1=0.841
u_a2=0.841
u_a3=999999998.344
u_a4=0.695
u_a5=0.504
u_a6=999999999.142
u_a7=0.504
u_a8=0.311
u_a9=0.142
tau=0.000
y_a0_proc_1=0.000
y_a1_proc_0=0.000
y_a2_proc_1=0.000
y_a3_proc_1=0.000
y_a4_proc_0=0.000
y_a5_proc_0=0.000
y_a6_proc_1=0.000
y_a7_proc_1=0.000
y_a8_proc_0=0.000
y_a9_proc_0=0.000
